\ This file has been generated by DOcplex
\ ENCODING=ISO-8859-1
\Problem name: cvrp_fisher_jaikumar_gap_tilted_penalty

Minimize
 obj: - 702549.545454545296 z_2_0 - 702549.545454545296 z_2_1
      - 702545.545454545296 z_2_2 - 702547.545454545296 z_2_3
      - 703364.272727272473 z_3_0 - 703361.272727272473 z_3_1
      - 703325.272727272473 z_3_2 - 703313.272727272473 z_3_3
      - 703050.090909090708 z_4_0 - 703044.090909090708 z_4_1
      - 703016.090909090708 z_4_2 - 703002.090909090708 z_4_3
      - 702876.545454545296 z_5_0 - 702881.545454545296 z_5_1
      - 702854.545454545296 z_5_2 - 1403215.636363636004 z_5_3
      - 1403668.363636363298 z_6_0 - 703309.272727272473 z_6_1
      - 703309.272727272473 z_6_2 - 703293.272727272473 z_6_3
      - 702868.545454545296 z_7_0 - 702882.545454545296 z_7_1
      - 702884.545454545296 z_7_2 - 702854.545454545296 z_7_3
      - 702538.545454545296 z_8_0 - 1402895.636363636004 z_8_1
      - 702530.545454545296 z_8_2 - 702527.545454545296 z_8_3
      - 703626.909090908943 z_9_0 - 703605.909090908943 z_9_1
      - 703599.909090908943 z_9_2 - 703572.909090908943 z_9_3
      - 703460.909090908943 z_10_0 - 703470.909090908943 z_10_1
      - 703464.909090908943 z_10_2 - 703444.909090908943 z_10_3
      - 703191.999999999767 z_11_0 - 703183.999999999767 z_11_1
      - 1403521.090909090359 z_11_2 - 703153.999999999767 z_11_3
      - 703338.272727272473 z_12_0 - 703327.272727272473 z_12_1
      - 703330.272727272473 z_12_2 - 703324.272727272473 z_12_3
      - 702411.090909090708 z_13_0 - 702414.090909090708 z_13_1
      - 702402.090909090708 z_13_2 - 702395.090909090708 z_13_3 + [
      700335.090909090708 z_2_0^2 + 1400670.181818181416 z_2_0*z_2_1
      + 1400670.181818181416 z_2_0*z_2_2 + 1400670.181818181416 z_2_0*z_2_3
      + 1483.636363636364 z_2_0*z_3_0 + 1309.090909090909 z_2_0*z_4_0
      + 1221.818181818182 z_2_0*z_5_0 + 1483.636363636364 z_2_0*z_6_0
      + 1221.818181818182 z_2_0*z_7_0 + 1047.272727272727 z_2_0*z_8_0
      + 1658.181818181818 z_2_0*z_9_0 + 1570.909090909091 z_2_0*z_10_0
      + 1396.363636363636 z_2_0*z_11_0 + 1483.636363636364 z_2_0*z_12_0
      + 960 z_2_0*z_13_0 + 700335.090909090708 z_2_1^2
      + 1400670.181818181416 z_2_1*z_2_2 + 1400670.181818181416 z_2_1*z_2_3
      + 1483.636363636364 z_2_1*z_3_1 + 1309.090909090909 z_2_1*z_4_1
      + 1221.818181818182 z_2_1*z_5_1 + 1483.636363636364 z_2_1*z_6_1
      + 1221.818181818182 z_2_1*z_7_1 + 1047.272727272727 z_2_1*z_8_1
      + 1658.181818181818 z_2_1*z_9_1 + 1570.909090909091 z_2_1*z_10_1
      + 1396.363636363636 z_2_1*z_11_1 + 1483.636363636364 z_2_1*z_12_1
      + 960 z_2_1*z_13_1 + 700335.090909090708 z_2_2^2
      + 1400670.181818181416 z_2_2*z_2_3 + 1483.636363636364 z_2_2*z_3_2
      + 1309.090909090909 z_2_2*z_4_2 + 1221.818181818182 z_2_2*z_5_2
      + 1483.636363636364 z_2_2*z_6_2 + 1221.818181818182 z_2_2*z_7_2
      + 1047.272727272727 z_2_2*z_8_2 + 1658.181818181818 z_2_2*z_9_2
      + 1570.909090909091 z_2_2*z_10_2 + 1396.363636363636 z_2_2*z_11_2
      + 1483.636363636364 z_2_2*z_12_2 + 960 z_2_2*z_13_2
      + 700335.090909090708 z_2_3^2 + 1483.636363636364 z_2_3*z_3_3
      + 1309.090909090909 z_2_3*z_4_3 + 1221.818181818182 z_2_3*z_5_3
      + 1483.636363636364 z_2_3*z_6_3 + 1221.818181818182 z_2_3*z_7_3
      + 1047.272727272727 z_2_3*z_8_3 + 1658.181818181818 z_2_3*z_9_3
      + 1570.909090909091 z_2_3*z_10_3 + 1396.363636363636 z_2_3*z_11_3
      + 1483.636363636364 z_2_3*z_12_3 + 960 z_2_3*z_13_3
      + 700335.090909090708 z_3_0^2 + 1400670.181818181416 z_3_0*z_3_1
      + 1400670.181818181416 z_3_0*z_3_2 + 1400670.181818181416 z_3_0*z_3_3
      + 1854.545454545455 z_3_0*z_4_0 + 1730.909090909091 z_3_0*z_5_0
      + 2101.818181818182 z_3_0*z_6_0 + 1730.909090909091 z_3_0*z_7_0
      + 1483.636363636364 z_3_0*z_8_0 + 2349.090909090909 z_3_0*z_9_0
      + 2225.454545454545 z_3_0*z_10_0 + 1978.181818181818 z_3_0*z_11_0
      + 2101.818181818182 z_3_0*z_12_0 + 1360 z_3_0*z_13_0
      + 700335.090909090708 z_3_1^2 + 1400670.181818181416 z_3_1*z_3_2
      + 1400670.181818181416 z_3_1*z_3_3 + 1854.545454545455 z_3_1*z_4_1
      + 1730.909090909091 z_3_1*z_5_1 + 2101.818181818182 z_3_1*z_6_1
      + 1730.909090909091 z_3_1*z_7_1 + 1483.636363636364 z_3_1*z_8_1
      + 2349.090909090909 z_3_1*z_9_1 + 2225.454545454545 z_3_1*z_10_1
      + 1978.181818181818 z_3_1*z_11_1 + 2101.818181818182 z_3_1*z_12_1
      + 1360 z_3_1*z_13_1 + 700335.090909090708 z_3_2^2
      + 1400670.181818181416 z_3_2*z_3_3 + 1854.545454545455 z_3_2*z_4_2
      + 1730.909090909091 z_3_2*z_5_2 + 2101.818181818182 z_3_2*z_6_2
      + 1730.909090909091 z_3_2*z_7_2 + 1483.636363636364 z_3_2*z_8_2
      + 2349.090909090909 z_3_2*z_9_2 + 2225.454545454545 z_3_2*z_10_2
      + 1978.181818181818 z_3_2*z_11_2 + 2101.818181818182 z_3_2*z_12_2
      + 1360 z_3_2*z_13_2 + 700335.090909090708 z_3_3^2
      + 1854.545454545455 z_3_3*z_4_3 + 1730.909090909091 z_3_3*z_5_3
      + 2101.818181818182 z_3_3*z_6_3 + 1730.909090909091 z_3_3*z_7_3
      + 1483.636363636364 z_3_3*z_8_3 + 2349.090909090909 z_3_3*z_9_3
      + 2225.454545454545 z_3_3*z_10_3 + 1978.181818181818 z_3_3*z_11_3
      + 2101.818181818182 z_3_3*z_12_3 + 1360 z_3_3*z_13_3
      + 700335.090909090708 z_4_0^2 + 1400670.181818181416 z_4_0*z_4_1
      + 1400670.181818181416 z_4_0*z_4_2 + 1400670.181818181416 z_4_0*z_4_3
      + 1527.272727272727 z_4_0*z_5_0 + 1854.545454545455 z_4_0*z_6_0
      + 1527.272727272727 z_4_0*z_7_0 + 1309.090909090909 z_4_0*z_8_0
      + 2072.727272727273 z_4_0*z_9_0 + 1963.636363636364 z_4_0*z_10_0
      + 1745.454545454545 z_4_0*z_11_0 + 1854.545454545455 z_4_0*z_12_0
      + 1200 z_4_0*z_13_0 + 700335.090909090708 z_4_1^2
      + 1400670.181818181416 z_4_1*z_4_2 + 1400670.181818181416 z_4_1*z_4_3
      + 1527.272727272727 z_4_1*z_5_1 + 1854.545454545455 z_4_1*z_6_1
      + 1527.272727272727 z_4_1*z_7_1 + 1309.090909090909 z_4_1*z_8_1
      + 2072.727272727273 z_4_1*z_9_1 + 1963.636363636364 z_4_1*z_10_1
      + 1745.454545454545 z_4_1*z_11_1 + 1854.545454545455 z_4_1*z_12_1
      + 1200 z_4_1*z_13_1 + 700335.090909090708 z_4_2^2
      + 1400670.181818181416 z_4_2*z_4_3 + 1527.272727272727 z_4_2*z_5_2
      + 1854.545454545455 z_4_2*z_6_2 + 1527.272727272727 z_4_2*z_7_2
      + 1309.090909090909 z_4_2*z_8_2 + 2072.727272727273 z_4_2*z_9_2
      + 1963.636363636364 z_4_2*z_10_2 + 1745.454545454545 z_4_2*z_11_2
      + 1854.545454545455 z_4_2*z_12_2 + 1200 z_4_2*z_13_2
      + 700335.090909090708 z_4_3^2 + 1527.272727272727 z_4_3*z_5_3
      + 1854.545454545455 z_4_3*z_6_3 + 1527.272727272727 z_4_3*z_7_3
      + 1309.090909090909 z_4_3*z_8_3 + 2072.727272727273 z_4_3*z_9_3
      + 1963.636363636364 z_4_3*z_10_3 + 1745.454545454545 z_4_3*z_11_3
      + 1854.545454545455 z_4_3*z_12_3 + 1200 z_4_3*z_13_3
      + 700335.090909090708 z_5_0^2 + 1400670.181818181416 z_5_0*z_5_1
      + 1400670.181818181416 z_5_0*z_5_2 + 1400670.181818181416 z_5_0*z_5_3
      + 1730.909090909091 z_5_0*z_6_0 + 1425.454545454545 z_5_0*z_7_0
      + 1221.818181818182 z_5_0*z_8_0 + 1934.545454545454 z_5_0*z_9_0
      + 1832.727272727273 z_5_0*z_10_0 + 1629.090909090909 z_5_0*z_11_0
      + 1730.909090909091 z_5_0*z_12_0 + 1120.000000000000 z_5_0*z_13_0
      + 700335.090909090708 z_5_1^2 + 1400670.181818181416 z_5_1*z_5_2
      + 1400670.181818181416 z_5_1*z_5_3 + 1730.909090909091 z_5_1*z_6_1
      + 1425.454545454545 z_5_1*z_7_1 + 1221.818181818182 z_5_1*z_8_1
      + 1934.545454545454 z_5_1*z_9_1 + 1832.727272727273 z_5_1*z_10_1
      + 1629.090909090909 z_5_1*z_11_1 + 1730.909090909091 z_5_1*z_12_1
      + 1120.000000000000 z_5_1*z_13_1 + 700335.090909090708 z_5_2^2
      + 1400670.181818181416 z_5_2*z_5_3 + 1730.909090909091 z_5_2*z_6_2
      + 1425.454545454545 z_5_2*z_7_2 + 1221.818181818182 z_5_2*z_8_2
      + 1934.545454545454 z_5_2*z_9_2 + 1832.727272727273 z_5_2*z_10_2
      + 1629.090909090909 z_5_2*z_11_2 + 1730.909090909091 z_5_2*z_12_2
      + 1120.000000000000 z_5_2*z_13_2 + 1400670.181818181416 z_5_3^2
      + 1730.909090909091 z_5_3*z_6_3 + 1425.454545454545 z_5_3*z_7_3
      + 1221.818181818182 z_5_3*z_8_3 + 1934.545454545454 z_5_3*z_9_3
      + 1832.727272727273 z_5_3*z_10_3 + 1629.090909090909 z_5_3*z_11_3
      + 1730.909090909091 z_5_3*z_12_3 + 1120.000000000000 z_5_3*z_13_3
      + 1400670.181818181416 z_6_0^2 + 1400670.181818181416 z_6_0*z_6_1
      + 1400670.181818181416 z_6_0*z_6_2 + 1400670.181818181416 z_6_0*z_6_3
      + 1730.909090909091 z_6_0*z_7_0 + 1483.636363636364 z_6_0*z_8_0
      + 2349.090909090909 z_6_0*z_9_0 + 2225.454545454545 z_6_0*z_10_0
      + 1978.181818181818 z_6_0*z_11_0 + 2101.818181818182 z_6_0*z_12_0
      + 1360 z_6_0*z_13_0 + 700335.090909090708 z_6_1^2
      + 1400670.181818181416 z_6_1*z_6_2 + 1400670.181818181416 z_6_1*z_6_3
      + 1730.909090909091 z_6_1*z_7_1 + 1483.636363636364 z_6_1*z_8_1
      + 2349.090909090909 z_6_1*z_9_1 + 2225.454545454545 z_6_1*z_10_1
      + 1978.181818181818 z_6_1*z_11_1 + 2101.818181818182 z_6_1*z_12_1
      + 1360 z_6_1*z_13_1 + 700335.090909090708 z_6_2^2
      + 1400670.181818181416 z_6_2*z_6_3 + 1730.909090909091 z_6_2*z_7_2
      + 1483.636363636364 z_6_2*z_8_2 + 2349.090909090909 z_6_2*z_9_2
      + 2225.454545454545 z_6_2*z_10_2 + 1978.181818181818 z_6_2*z_11_2
      + 2101.818181818182 z_6_2*z_12_2 + 1360 z_6_2*z_13_2
      + 700335.090909090708 z_6_3^2 + 1730.909090909091 z_6_3*z_7_3
      + 1483.636363636364 z_6_3*z_8_3 + 2349.090909090909 z_6_3*z_9_3
      + 2225.454545454545 z_6_3*z_10_3 + 1978.181818181818 z_6_3*z_11_3
      + 2101.818181818182 z_6_3*z_12_3 + 1360 z_6_3*z_13_3
      + 700335.090909090708 z_7_0^2 + 1400670.181818181416 z_7_0*z_7_1
      + 1400670.181818181416 z_7_0*z_7_2 + 1400670.181818181416 z_7_0*z_7_3
      + 1221.818181818182 z_7_0*z_8_0 + 1934.545454545454 z_7_0*z_9_0
      + 1832.727272727273 z_7_0*z_10_0 + 1629.090909090909 z_7_0*z_11_0
      + 1730.909090909091 z_7_0*z_12_0 + 1120.000000000000 z_7_0*z_13_0
      + 700335.090909090708 z_7_1^2 + 1400670.181818181416 z_7_1*z_7_2
      + 1400670.181818181416 z_7_1*z_7_3 + 1221.818181818182 z_7_1*z_8_1
      + 1934.545454545454 z_7_1*z_9_1 + 1832.727272727273 z_7_1*z_10_1
      + 1629.090909090909 z_7_1*z_11_1 + 1730.909090909091 z_7_1*z_12_1
      + 1120.000000000000 z_7_1*z_13_1 + 700335.090909090708 z_7_2^2
      + 1400670.181818181416 z_7_2*z_7_3 + 1221.818181818182 z_7_2*z_8_2
      + 1934.545454545454 z_7_2*z_9_2 + 1832.727272727273 z_7_2*z_10_2
      + 1629.090909090909 z_7_2*z_11_2 + 1730.909090909091 z_7_2*z_12_2
      + 1120.000000000000 z_7_2*z_13_2 + 700335.090909090708 z_7_3^2
      + 1221.818181818182 z_7_3*z_8_3 + 1934.545454545454 z_7_3*z_9_3
      + 1832.727272727273 z_7_3*z_10_3 + 1629.090909090909 z_7_3*z_11_3
      + 1730.909090909091 z_7_3*z_12_3 + 1120.000000000000 z_7_3*z_13_3
      + 700335.090909090708 z_8_0^2 + 1400670.181818181416 z_8_0*z_8_1
      + 1400670.181818181416 z_8_0*z_8_2 + 1400670.181818181416 z_8_0*z_8_3
      + 1658.181818181818 z_8_0*z_9_0 + 1570.909090909091 z_8_0*z_10_0
      + 1396.363636363636 z_8_0*z_11_0 + 1483.636363636364 z_8_0*z_12_0
      + 960 z_8_0*z_13_0 + 1400670.181818181416 z_8_1^2
      + 1400670.181818181416 z_8_1*z_8_2 + 1400670.181818181416 z_8_1*z_8_3
      + 1658.181818181818 z_8_1*z_9_1 + 1570.909090909091 z_8_1*z_10_1
      + 1396.363636363636 z_8_1*z_11_1 + 1483.636363636364 z_8_1*z_12_1
      + 960 z_8_1*z_13_1 + 700335.090909090708 z_8_2^2
      + 1400670.181818181416 z_8_2*z_8_3 + 1658.181818181818 z_8_2*z_9_2
      + 1570.909090909091 z_8_2*z_10_2 + 1396.363636363636 z_8_2*z_11_2
      + 1483.636363636364 z_8_2*z_12_2 + 960 z_8_2*z_13_2
      + 700335.090909090708 z_8_3^2 + 1658.181818181818 z_8_3*z_9_3
      + 1570.909090909091 z_8_3*z_10_3 + 1396.363636363636 z_8_3*z_11_3
      + 1483.636363636364 z_8_3*z_12_3 + 960 z_8_3*z_13_3
      + 700335.090909090708 z_9_0^2 + 1400670.181818181416 z_9_0*z_9_1
      + 1400670.181818181416 z_9_0*z_9_2 + 1400670.181818181416 z_9_0*z_9_3
      + 2487.272727272727 z_9_0*z_10_0 + 2210.909090909091 z_9_0*z_11_0
      + 2349.090909090909 z_9_0*z_12_0 + 1520 z_9_0*z_13_0
      + 700335.090909090708 z_9_1^2 + 1400670.181818181416 z_9_1*z_9_2
      + 1400670.181818181416 z_9_1*z_9_3 + 2487.272727272727 z_9_1*z_10_1
      + 2210.909090909091 z_9_1*z_11_1 + 2349.090909090909 z_9_1*z_12_1
      + 1520 z_9_1*z_13_1 + 700335.090909090708 z_9_2^2
      + 1400670.181818181416 z_9_2*z_9_3 + 2487.272727272727 z_9_2*z_10_2
      + 2210.909090909091 z_9_2*z_11_2 + 2349.090909090909 z_9_2*z_12_2
      + 1520 z_9_2*z_13_2 + 700335.090909090708 z_9_3^2
      + 2487.272727272727 z_9_3*z_10_3 + 2210.909090909091 z_9_3*z_11_3
      + 2349.090909090909 z_9_3*z_12_3 + 1520 z_9_3*z_13_3
      + 700335.090909090708 z_10_0^2 + 1400670.181818181416 z_10_0*z_10_1
      + 1400670.181818181416 z_10_0*z_10_2 + 1400670.181818181416 z_10_0*z_10_3
      + 2094.545454545455 z_10_0*z_11_0 + 2225.454545454545 z_10_0*z_12_0
      + 1440 z_10_0*z_13_0 + 700335.090909090708 z_10_1^2
      + 1400670.181818181416 z_10_1*z_10_2 + 1400670.181818181416 z_10_1*z_10_3
      + 2094.545454545455 z_10_1*z_11_1 + 2225.454545454545 z_10_1*z_12_1
      + 1440 z_10_1*z_13_1 + 700335.090909090708 z_10_2^2
      + 1400670.181818181416 z_10_2*z_10_3 + 2094.545454545455 z_10_2*z_11_2
      + 2225.454545454545 z_10_2*z_12_2 + 1440 z_10_2*z_13_2
      + 700335.090909090708 z_10_3^2 + 2094.545454545455 z_10_3*z_11_3
      + 2225.454545454545 z_10_3*z_12_3 + 1440 z_10_3*z_13_3
      + 700335.090909090708 z_11_0^2 + 1400670.181818181416 z_11_0*z_11_1
      + 1400670.181818181416 z_11_0*z_11_2 + 1400670.181818181416 z_11_0*z_11_3
      + 1978.181818181818 z_11_0*z_12_0 + 1280 z_11_0*z_13_0
      + 700335.090909090708 z_11_1^2 + 1400670.181818181416 z_11_1*z_11_2
      + 1400670.181818181416 z_11_1*z_11_3 + 1978.181818181818 z_11_1*z_12_1
      + 1280 z_11_1*z_13_1 + 1400670.181818181416 z_11_2^2
      + 1400670.181818181416 z_11_2*z_11_3 + 1978.181818181818 z_11_2*z_12_2
      + 1280 z_11_2*z_13_2 + 700335.090909090708 z_11_3^2
      + 1978.181818181818 z_11_3*z_12_3 + 1280 z_11_3*z_13_3
      + 700335.090909090708 z_12_0^2 + 1400670.181818181416 z_12_0*z_12_1
      + 1400670.181818181416 z_12_0*z_12_2 + 1400670.181818181416 z_12_0*z_12_3
      + 1360 z_12_0*z_13_0 + 700335.090909090708 z_12_1^2
      + 1400670.181818181416 z_12_1*z_12_2 + 1400670.181818181416 z_12_1*z_12_3
      + 1360 z_12_1*z_13_1 + 700335.090909090708 z_12_2^2
      + 1400670.181818181416 z_12_2*z_12_3 + 1360 z_12_2*z_13_2
      + 700335.090909090708 z_12_3^2 + 1360 z_12_3*z_13_3
      + 700335.090909090708 z_13_0^2 + 1400670.181818181416 z_13_0*z_13_1
      + 1400670.181818181416 z_13_0*z_13_2 + 1400670.181818181416 z_13_0*z_13_3
      + 700335.090909090708 z_13_1^2 + 1400670.181818181416 z_13_1*z_13_2
      + 1400670.181818181416 z_13_1*z_13_3 + 700335.090909090708 z_13_2^2
      + 1400670.181818181416 z_13_2*z_13_3 + 700335.090909090708 z_13_3^2 ]/2 +
      5626244.363636360504
Subject To

Bounds
 0 <= z_2_0 <= 1
 0 <= z_2_1 <= 1
 0 <= z_2_2 <= 1
 0 <= z_2_3 <= 1
 0 <= z_3_0 <= 1
 0 <= z_3_1 <= 1
 0 <= z_3_2 <= 1
 0 <= z_3_3 <= 1
 0 <= z_4_0 <= 1
 0 <= z_4_1 <= 1
 0 <= z_4_2 <= 1
 0 <= z_4_3 <= 1
 0 <= z_5_0 <= 1
 0 <= z_5_1 <= 1
 0 <= z_5_2 <= 1
 0 <= z_5_3 <= 1
 0 <= z_6_0 <= 1
 0 <= z_6_1 <= 1
 0 <= z_6_2 <= 1
 0 <= z_6_3 <= 1
 0 <= z_7_0 <= 1
 0 <= z_7_1 <= 1
 0 <= z_7_2 <= 1
 0 <= z_7_3 <= 1
 0 <= z_8_0 <= 1
 0 <= z_8_1 <= 1
 0 <= z_8_2 <= 1
 0 <= z_8_3 <= 1
 0 <= z_9_0 <= 1
 0 <= z_9_1 <= 1
 0 <= z_9_2 <= 1
 0 <= z_9_3 <= 1
 0 <= z_10_0 <= 1
 0 <= z_10_1 <= 1
 0 <= z_10_2 <= 1
 0 <= z_10_3 <= 1
 0 <= z_11_0 <= 1
 0 <= z_11_1 <= 1
 0 <= z_11_2 <= 1
 0 <= z_11_3 <= 1
 0 <= z_12_0 <= 1
 0 <= z_12_1 <= 1
 0 <= z_12_2 <= 1
 0 <= z_12_3 <= 1
 0 <= z_13_0 <= 1
 0 <= z_13_1 <= 1
 0 <= z_13_2 <= 1
 0 <= z_13_3 <= 1

Binaries
 z_2_0 z_2_1 z_2_2 z_2_3 z_3_0 z_3_1 z_3_2 z_3_3 z_4_0 z_4_1 z_4_2 z_4_3 z_5_0
 z_5_1 z_5_2 z_5_3 z_6_0 z_6_1 z_6_2 z_6_3 z_7_0 z_7_1 z_7_2 z_7_3 z_8_0 z_8_1
 z_8_2 z_8_3 z_9_0 z_9_1 z_9_2 z_9_3 z_10_0 z_10_1 z_10_2 z_10_3 z_11_0 z_11_1
 z_11_2 z_11_3 z_12_0 z_12_1 z_12_2 z_12_3 z_13_0 z_13_1 z_13_2 z_13_3
End
